NAME : test
TYPE : TSP
DIMENSION : 10
EDGE_WEIGHT_TYPE : EUC_2D
NODE_COORD_SECTION
A0 645.332 239.777
A1 603.332 239.777
A2 582.331 276.150
A3 603.330 312.523
A4 645.332 312.524
A5 666.331 276.150
B0 729.568 276.150
B1 750.567 312.524
B2 792.570 312.523
B3 813.569 276.150
B4 792.568 239.777
B5 750.568 239.777
C0 750.567 165.723
C1 792.568 165.723
C2 813.568 129.350
C3 792.568 92.976
C4 750.567 92.976
C5 729.567 129.350
D0 666.333 129.350
D1 645.332 92.976
D2 603.332 92.976
D3 582.332 129.350
D4 603.332 165.723
D5 645.332 165.723
N0 753.345 202.164
N1 642.495 202.390
EOF
